100 8
507 806
586 750
154 240
179 505
270 613
806 200
98 264
248 93
414 543
673 664
214 827
41 256
131 474
473 286
664 671
277 685
460 826
211 641
229 235
780 260
754 804
50 403
175 294
379 189
626 598
753 903
458 271
408 931
572 691
117 758
244 262
250 704
819 521
110 112
74 339
786 652
251 606
98 221
705 730
684 920
428 778
272 913
217 712
468 400
678 707
66 399
685 705
219 698
515 775
303 609
687 892
713 220
520 553
764 613
334 710
535 840
458 936
176 614
745 570
740 555
276 268
609 740
103 704
67 387
258 486
225 248
407 400
363 906
121 308
714 269
268 486
213 703
217 738
235 232
338 268
277 203
143 400
541 575
302 294
160 251
213 811
280 929
497 876
128 247
424 557
620 736
304 475
620 912
302 264
323 248
814 262
487 539
702 748
670 657
101 248
738 348
432 730
259 447
153 394
30 344
